p cnf 0 0
c K couleurs
9 13 17 21 25 29 33 37 0
10 14 18 22 26 30 34 38 0
11 15 19 23 27 31 35 39 0
12 16 20 24 28 32 36 40 0
1 0
-2 0
3 0
-4 0
5 0
-6 0
7 0
-8 0
-10 0
-11 0
-12 0
-15 0
-16 0
-20 0
c 1 color par vertex et au plus 1
9 10 11 12 0
-10 -9 0
-11 -9 0
-12 -9 0
-11 -10 0
-12 -10 0
-12 -11 0
13 14 15 16 0
-14 -13 0
-15 -13 0
-16 -13 0
-15 -14 0
-16 -14 0
-16 -15 0
17 18 19 20 0
-18 -17 0
-19 -17 0
-20 -17 0
-19 -18 0
-20 -18 0
-20 -19 0
21 22 23 24 0
-22 -21 0
-23 -21 0
-24 -21 0
-23 -22 0
-24 -22 0
-24 -23 0
25 26 27 28 0
-26 -25 0
-27 -25 0
-28 -25 0
-27 -26 0
-28 -26 0
-28 -27 0
29 30 31 32 0
-30 -29 0
-31 -29 0
-32 -29 0
-31 -30 0
-32 -30 0
-32 -31 0
33 34 35 36 0
-34 -33 0
-35 -33 0
-36 -33 0
-35 -34 0
-36 -34 0
-36 -35 0
37 38 39 40 0
-38 -37 0
-39 -37 0
-40 -37 0
-39 -38 0
-40 -38 0
-40 -39 0
c gc coresp to G
-9 -14 41 0
-9 -14 -42 1 0
-9 -14 42 -1 0
-9 -15 43 0
-9 -15 -44 1 0
-9 -15 44 -1 0
-9 -16 45 0
-9 -16 -46 1 0
-9 -16 46 -1 0
-10 -13 41 0
-10 -13 -42 1 0
-10 -13 42 -1 0
-10 -15 47 0
-10 -15 -48 1 0
-10 -15 48 -1 0
-10 -16 49 0
-10 -16 -50 1 0
-10 -16 50 -1 0
-11 -13 43 0
-11 -13 -44 1 0
-11 -13 44 -1 0
-11 -14 47 0
-11 -14 -48 1 0
-11 -14 48 -1 0
-11 -16 51 0
-11 -16 -52 1 0
-11 -16 52 -1 0
-12 -13 45 0
-12 -13 -46 1 0
-12 -13 46 -1 0
-12 -14 49 0
-12 -14 -50 1 0
-12 -14 50 -1 0
-12 -15 51 0
-12 -15 -52 1 0
-12 -15 52 -1 0
-13 -18 41 0
-13 -18 -42 2 0
-13 -18 42 -2 0
-13 -19 43 0
-13 -19 -44 2 0
-13 -19 44 -2 0
-13 -20 45 0
-13 -20 -46 2 0
-13 -20 46 -2 0
-14 -17 41 0
-14 -17 -42 2 0
-14 -17 42 -2 0
-14 -19 47 0
-14 -19 -48 2 0
-14 -19 48 -2 0
-14 -20 49 0
-14 -20 -50 2 0
-14 -20 50 -2 0
-15 -17 43 0
-15 -17 -44 2 0
-15 -17 44 -2 0
-15 -18 47 0
-15 -18 -48 2 0
-15 -18 48 -2 0
-15 -20 51 0
-15 -20 -52 2 0
-15 -20 52 -2 0
-16 -17 45 0
-16 -17 -46 2 0
-16 -17 46 -2 0
-16 -18 49 0
-16 -18 -50 2 0
-16 -18 50 -2 0
-16 -19 51 0
-16 -19 -52 2 0
-16 -19 52 -2 0
-17 -22 41 0
-17 -22 -42 3 0
-17 -22 42 -3 0
-17 -23 43 0
-17 -23 -44 3 0
-17 -23 44 -3 0
-17 -24 45 0
-17 -24 -46 3 0
-17 -24 46 -3 0
-18 -21 41 0
-18 -21 -42 3 0
-18 -21 42 -3 0
-18 -23 47 0
-18 -23 -48 3 0
-18 -23 48 -3 0
-18 -24 49 0
-18 -24 -50 3 0
-18 -24 50 -3 0
-19 -21 43 0
-19 -21 -44 3 0
-19 -21 44 -3 0
-19 -22 47 0
-19 -22 -48 3 0
-19 -22 48 -3 0
-19 -24 51 0
-19 -24 -52 3 0
-19 -24 52 -3 0
-20 -21 45 0
-20 -21 -46 3 0
-20 -21 46 -3 0
-20 -22 49 0
-20 -22 -50 3 0
-20 -22 50 -3 0
-20 -23 51 0
-20 -23 -52 3 0
-20 -23 52 -3 0
-21 -26 41 0
-21 -26 -42 4 0
-21 -26 42 -4 0
-21 -27 43 0
-21 -27 -44 4 0
-21 -27 44 -4 0
-21 -28 45 0
-21 -28 -46 4 0
-21 -28 46 -4 0
-22 -25 41 0
-22 -25 -42 4 0
-22 -25 42 -4 0
-22 -27 47 0
-22 -27 -48 4 0
-22 -27 48 -4 0
-22 -28 49 0
-22 -28 -50 4 0
-22 -28 50 -4 0
-23 -25 43 0
-23 -25 -44 4 0
-23 -25 44 -4 0
-23 -26 47 0
-23 -26 -48 4 0
-23 -26 48 -4 0
-23 -28 51 0
-23 -28 -52 4 0
-23 -28 52 -4 0
-24 -25 45 0
-24 -25 -46 4 0
-24 -25 46 -4 0
-24 -26 49 0
-24 -26 -50 4 0
-24 -26 50 -4 0
-24 -27 51 0
-24 -27 -52 4 0
-24 -27 52 -4 0
-25 -30 41 0
-25 -30 -42 5 0
-25 -30 42 -5 0
-25 -31 43 0
-25 -31 -44 5 0
-25 -31 44 -5 0
-25 -32 45 0
-25 -32 -46 5 0
-25 -32 46 -5 0
-26 -29 41 0
-26 -29 -42 5 0
-26 -29 42 -5 0
-26 -31 47 0
-26 -31 -48 5 0
-26 -31 48 -5 0
-26 -32 49 0
-26 -32 -50 5 0
-26 -32 50 -5 0
-27 -29 43 0
-27 -29 -44 5 0
-27 -29 44 -5 0
-27 -30 47 0
-27 -30 -48 5 0
-27 -30 48 -5 0
-27 -32 51 0
-27 -32 -52 5 0
-27 -32 52 -5 0
-28 -29 45 0
-28 -29 -46 5 0
-28 -29 46 -5 0
-28 -30 49 0
-28 -30 -50 5 0
-28 -30 50 -5 0
-28 -31 51 0
-28 -31 -52 5 0
-28 -31 52 -5 0
-29 -34 41 0
-29 -34 -42 6 0
-29 -34 42 -6 0
-29 -35 43 0
-29 -35 -44 6 0
-29 -35 44 -6 0
-29 -36 45 0
-29 -36 -46 6 0
-29 -36 46 -6 0
-30 -33 41 0
-30 -33 -42 6 0
-30 -33 42 -6 0
-30 -35 47 0
-30 -35 -48 6 0
-30 -35 48 -6 0
-30 -36 49 0
-30 -36 -50 6 0
-30 -36 50 -6 0
-31 -33 43 0
-31 -33 -44 6 0
-31 -33 44 -6 0
-31 -34 47 0
-31 -34 -48 6 0
-31 -34 48 -6 0
-31 -36 51 0
-31 -36 -52 6 0
-31 -36 52 -6 0
-32 -33 45 0
-32 -33 -46 6 0
-32 -33 46 -6 0
-32 -34 49 0
-32 -34 -50 6 0
-32 -34 50 -6 0
-32 -35 51 0
-32 -35 -52 6 0
-32 -35 52 -6 0
-33 -38 41 0
-33 -38 -42 7 0
-33 -38 42 -7 0
-33 -39 43 0
-33 -39 -44 7 0
-33 -39 44 -7 0
-33 -40 45 0
-33 -40 -46 7 0
-33 -40 46 -7 0
-34 -37 41 0
-34 -37 -42 7 0
-34 -37 42 -7 0
-34 -39 47 0
-34 -39 -48 7 0
-34 -39 48 -7 0
-34 -40 49 0
-34 -40 -50 7 0
-34 -40 50 -7 0
-35 -37 43 0
-35 -37 -44 7 0
-35 -37 44 -7 0
-35 -38 47 0
-35 -38 -48 7 0
-35 -38 48 -7 0
-35 -40 51 0
-35 -40 -52 7 0
-35 -40 52 -7 0
-36 -37 45 0
-36 -37 -46 7 0
-36 -37 46 -7 0
-36 -38 49 0
-36 -38 -50 7 0
-36 -38 50 -7 0
-36 -39 51 0
-36 -39 -52 7 0
-36 -39 52 -7 0
-37 -10 41 0
-37 -10 -42 8 0
-37 -10 42 -8 0
-37 -11 43 0
-37 -11 -44 8 0
-37 -11 44 -8 0
-37 -12 45 0
-37 -12 -46 8 0
-37 -12 46 -8 0
-38 -9 41 0
-38 -9 -42 8 0
-38 -9 42 -8 0
-38 -11 47 0
-38 -11 -48 8 0
-38 -11 48 -8 0
-38 -12 49 0
-38 -12 -50 8 0
-38 -12 50 -8 0
-39 -9 43 0
-39 -9 -44 8 0
-39 -9 44 -8 0
-39 -10 47 0
-39 -10 -48 8 0
-39 -10 48 -8 0
-39 -12 51 0
-39 -12 -52 8 0
-39 -12 52 -8 0
-40 -9 45 0
-40 -9 -46 8 0
-40 -9 46 -8 0
-40 -10 49 0
-40 -10 -50 8 0
-40 -10 50 -8 0
-40 -11 51 0
-40 -11 -52 8 0
-40 -11 52 -8 0
c X
-54 9 0
-53 9 0
-54 14 0
-53 14 0
-54 1 0
-53 -1 0
54 -9 -14 -1 0
53 -9 -14 1 0
-56 9 0
-55 9 0
-56 15 0
-55 15 0
-56 1 0
-55 -1 0
56 -9 -15 -1 0
55 -9 -15 1 0
-58 9 0
-57 9 0
-58 16 0
-57 16 0
-58 1 0
-57 -1 0
58 -9 -16 -1 0
57 -9 -16 1 0
-60 10 0
-59 10 0
-60 13 0
-59 13 0
-60 1 0
-59 -1 0
60 -10 -13 -1 0
59 -10 -13 1 0
-62 10 0
-61 10 0
-62 15 0
-61 15 0
-62 1 0
-61 -1 0
62 -10 -15 -1 0
61 -10 -15 1 0
-64 10 0
-63 10 0
-64 16 0
-63 16 0
-64 1 0
-63 -1 0
64 -10 -16 -1 0
63 -10 -16 1 0
-66 11 0
-65 11 0
-66 13 0
-65 13 0
-66 1 0
-65 -1 0
66 -11 -13 -1 0
65 -11 -13 1 0
-68 11 0
-67 11 0
-68 14 0
-67 14 0
-68 1 0
-67 -1 0
68 -11 -14 -1 0
67 -11 -14 1 0
-70 11 0
-69 11 0
-70 16 0
-69 16 0
-70 1 0
-69 -1 0
70 -11 -16 -1 0
69 -11 -16 1 0
-72 12 0
-71 12 0
-72 13 0
-71 13 0
-72 1 0
-71 -1 0
72 -12 -13 -1 0
71 -12 -13 1 0
-74 12 0
-73 12 0
-74 14 0
-73 14 0
-74 1 0
-73 -1 0
74 -12 -14 -1 0
73 -12 -14 1 0
-76 12 0
-75 12 0
-76 15 0
-75 15 0
-76 1 0
-75 -1 0
76 -12 -15 -1 0
75 -12 -15 1 0
-78 13 0
-77 13 0
-78 18 0
-77 18 0
-78 2 0
-77 -2 0
78 -13 -18 -2 0
77 -13 -18 2 0
-80 13 0
-79 13 0
-80 19 0
-79 19 0
-80 2 0
-79 -2 0
80 -13 -19 -2 0
79 -13 -19 2 0
-82 13 0
-81 13 0
-82 20 0
-81 20 0
-82 2 0
-81 -2 0
82 -13 -20 -2 0
81 -13 -20 2 0
-84 14 0
-83 14 0
-84 17 0
-83 17 0
-84 2 0
-83 -2 0
84 -14 -17 -2 0
83 -14 -17 2 0
-86 14 0
-85 14 0
-86 19 0
-85 19 0
-86 2 0
-85 -2 0
86 -14 -19 -2 0
85 -14 -19 2 0
-88 14 0
-87 14 0
-88 20 0
-87 20 0
-88 2 0
-87 -2 0
88 -14 -20 -2 0
87 -14 -20 2 0
-90 15 0
-89 15 0
-90 17 0
-89 17 0
-90 2 0
-89 -2 0
90 -15 -17 -2 0
89 -15 -17 2 0
-92 15 0
-91 15 0
-92 18 0
-91 18 0
-92 2 0
-91 -2 0
92 -15 -18 -2 0
91 -15 -18 2 0
-94 15 0
-93 15 0
-94 20 0
-93 20 0
-94 2 0
-93 -2 0
94 -15 -20 -2 0
93 -15 -20 2 0
-96 16 0
-95 16 0
-96 17 0
-95 17 0
-96 2 0
-95 -2 0
96 -16 -17 -2 0
95 -16 -17 2 0
-98 16 0
-97 16 0
-98 18 0
-97 18 0
-98 2 0
-97 -2 0
98 -16 -18 -2 0
97 -16 -18 2 0
-100 16 0
-99 16 0
-100 19 0
-99 19 0
-100 2 0
-99 -2 0
100 -16 -19 -2 0
99 -16 -19 2 0
-102 17 0
-101 17 0
-102 22 0
-101 22 0
-102 3 0
-101 -3 0
102 -17 -22 -3 0
101 -17 -22 3 0
-104 17 0
-103 17 0
-104 23 0
-103 23 0
-104 3 0
-103 -3 0
104 -17 -23 -3 0
103 -17 -23 3 0
-106 17 0
-105 17 0
-106 24 0
-105 24 0
-106 3 0
-105 -3 0
106 -17 -24 -3 0
105 -17 -24 3 0
-108 18 0
-107 18 0
-108 21 0
-107 21 0
-108 3 0
-107 -3 0
108 -18 -21 -3 0
107 -18 -21 3 0
-110 18 0
-109 18 0
-110 23 0
-109 23 0
-110 3 0
-109 -3 0
110 -18 -23 -3 0
109 -18 -23 3 0
-112 18 0
-111 18 0
-112 24 0
-111 24 0
-112 3 0
-111 -3 0
112 -18 -24 -3 0
111 -18 -24 3 0
-114 19 0
-113 19 0
-114 21 0
-113 21 0
-114 3 0
-113 -3 0
114 -19 -21 -3 0
113 -19 -21 3 0
-116 19 0
-115 19 0
-116 22 0
-115 22 0
-116 3 0
-115 -3 0
116 -19 -22 -3 0
115 -19 -22 3 0
-118 19 0
-117 19 0
-118 24 0
-117 24 0
-118 3 0
-117 -3 0
118 -19 -24 -3 0
117 -19 -24 3 0
-120 20 0
-119 20 0
-120 21 0
-119 21 0
-120 3 0
-119 -3 0
120 -20 -21 -3 0
119 -20 -21 3 0
-122 20 0
-121 20 0
-122 22 0
-121 22 0
-122 3 0
-121 -3 0
122 -20 -22 -3 0
121 -20 -22 3 0
-124 20 0
-123 20 0
-124 23 0
-123 23 0
-124 3 0
-123 -3 0
124 -20 -23 -3 0
123 -20 -23 3 0
-126 21 0
-125 21 0
-126 26 0
-125 26 0
-126 4 0
-125 -4 0
126 -21 -26 -4 0
125 -21 -26 4 0
-128 21 0
-127 21 0
-128 27 0
-127 27 0
-128 4 0
-127 -4 0
128 -21 -27 -4 0
127 -21 -27 4 0
-130 21 0
-129 21 0
-130 28 0
-129 28 0
-130 4 0
-129 -4 0
130 -21 -28 -4 0
129 -21 -28 4 0
-132 22 0
-131 22 0
-132 25 0
-131 25 0
-132 4 0
-131 -4 0
132 -22 -25 -4 0
131 -22 -25 4 0
-134 22 0
-133 22 0
-134 27 0
-133 27 0
-134 4 0
-133 -4 0
134 -22 -27 -4 0
133 -22 -27 4 0
-136 22 0
-135 22 0
-136 28 0
-135 28 0
-136 4 0
-135 -4 0
136 -22 -28 -4 0
135 -22 -28 4 0
-138 23 0
-137 23 0
-138 25 0
-137 25 0
-138 4 0
-137 -4 0
138 -23 -25 -4 0
137 -23 -25 4 0
-140 23 0
-139 23 0
-140 26 0
-139 26 0
-140 4 0
-139 -4 0
140 -23 -26 -4 0
139 -23 -26 4 0
-142 23 0
-141 23 0
-142 28 0
-141 28 0
-142 4 0
-141 -4 0
142 -23 -28 -4 0
141 -23 -28 4 0
-144 24 0
-143 24 0
-144 25 0
-143 25 0
-144 4 0
-143 -4 0
144 -24 -25 -4 0
143 -24 -25 4 0
-146 24 0
-145 24 0
-146 26 0
-145 26 0
-146 4 0
-145 -4 0
146 -24 -26 -4 0
145 -24 -26 4 0
-148 24 0
-147 24 0
-148 27 0
-147 27 0
-148 4 0
-147 -4 0
148 -24 -27 -4 0
147 -24 -27 4 0
-150 25 0
-149 25 0
-150 30 0
-149 30 0
-150 5 0
-149 -5 0
150 -25 -30 -5 0
149 -25 -30 5 0
-152 25 0
-151 25 0
-152 31 0
-151 31 0
-152 5 0
-151 -5 0
152 -25 -31 -5 0
151 -25 -31 5 0
-154 25 0
-153 25 0
-154 32 0
-153 32 0
-154 5 0
-153 -5 0
154 -25 -32 -5 0
153 -25 -32 5 0
-156 26 0
-155 26 0
-156 29 0
-155 29 0
-156 5 0
-155 -5 0
156 -26 -29 -5 0
155 -26 -29 5 0
-158 26 0
-157 26 0
-158 31 0
-157 31 0
-158 5 0
-157 -5 0
158 -26 -31 -5 0
157 -26 -31 5 0
-160 26 0
-159 26 0
-160 32 0
-159 32 0
-160 5 0
-159 -5 0
160 -26 -32 -5 0
159 -26 -32 5 0
-162 27 0
-161 27 0
-162 29 0
-161 29 0
-162 5 0
-161 -5 0
162 -27 -29 -5 0
161 -27 -29 5 0
-164 27 0
-163 27 0
-164 30 0
-163 30 0
-164 5 0
-163 -5 0
164 -27 -30 -5 0
163 -27 -30 5 0
-166 27 0
-165 27 0
-166 32 0
-165 32 0
-166 5 0
-165 -5 0
166 -27 -32 -5 0
165 -27 -32 5 0
-168 28 0
-167 28 0
-168 29 0
-167 29 0
-168 5 0
-167 -5 0
168 -28 -29 -5 0
167 -28 -29 5 0
-170 28 0
-169 28 0
-170 30 0
-169 30 0
-170 5 0
-169 -5 0
170 -28 -30 -5 0
169 -28 -30 5 0
-172 28 0
-171 28 0
-172 31 0
-171 31 0
-172 5 0
-171 -5 0
172 -28 -31 -5 0
171 -28 -31 5 0
-174 29 0
-173 29 0
-174 34 0
-173 34 0
-174 6 0
-173 -6 0
174 -29 -34 -6 0
173 -29 -34 6 0
-176 29 0
-175 29 0
-176 35 0
-175 35 0
-176 6 0
-175 -6 0
176 -29 -35 -6 0
175 -29 -35 6 0
-178 29 0
-177 29 0
-178 36 0
-177 36 0
-178 6 0
-177 -6 0
178 -29 -36 -6 0
177 -29 -36 6 0
-180 30 0
-179 30 0
-180 33 0
-179 33 0
-180 6 0
-179 -6 0
180 -30 -33 -6 0
179 -30 -33 6 0
-182 30 0
-181 30 0
-182 35 0
-181 35 0
-182 6 0
-181 -6 0
182 -30 -35 -6 0
181 -30 -35 6 0
-184 30 0
-183 30 0
-184 36 0
-183 36 0
-184 6 0
-183 -6 0
184 -30 -36 -6 0
183 -30 -36 6 0
-186 31 0
-185 31 0
-186 33 0
-185 33 0
-186 6 0
-185 -6 0
186 -31 -33 -6 0
185 -31 -33 6 0
-188 31 0
-187 31 0
-188 34 0
-187 34 0
-188 6 0
-187 -6 0
188 -31 -34 -6 0
187 -31 -34 6 0
-190 31 0
-189 31 0
-190 36 0
-189 36 0
-190 6 0
-189 -6 0
190 -31 -36 -6 0
189 -31 -36 6 0
-192 32 0
-191 32 0
-192 33 0
-191 33 0
-192 6 0
-191 -6 0
192 -32 -33 -6 0
191 -32 -33 6 0
-194 32 0
-193 32 0
-194 34 0
-193 34 0
-194 6 0
-193 -6 0
194 -32 -34 -6 0
193 -32 -34 6 0
-196 32 0
-195 32 0
-196 35 0
-195 35 0
-196 6 0
-195 -6 0
196 -32 -35 -6 0
195 -32 -35 6 0
-198 33 0
-197 33 0
-198 38 0
-197 38 0
-198 7 0
-197 -7 0
198 -33 -38 -7 0
197 -33 -38 7 0
-200 33 0
-199 33 0
-200 39 0
-199 39 0
-200 7 0
-199 -7 0
200 -33 -39 -7 0
199 -33 -39 7 0
-202 33 0
-201 33 0
-202 40 0
-201 40 0
-202 7 0
-201 -7 0
202 -33 -40 -7 0
201 -33 -40 7 0
-204 34 0
-203 34 0
-204 37 0
-203 37 0
-204 7 0
-203 -7 0
204 -34 -37 -7 0
203 -34 -37 7 0
-206 34 0
-205 34 0
-206 39 0
-205 39 0
-206 7 0
-205 -7 0
206 -34 -39 -7 0
205 -34 -39 7 0
-208 34 0
-207 34 0
-208 40 0
-207 40 0
-208 7 0
-207 -7 0
208 -34 -40 -7 0
207 -34 -40 7 0
-210 35 0
-209 35 0
-210 37 0
-209 37 0
-210 7 0
-209 -7 0
210 -35 -37 -7 0
209 -35 -37 7 0
-212 35 0
-211 35 0
-212 38 0
-211 38 0
-212 7 0
-211 -7 0
212 -35 -38 -7 0
211 -35 -38 7 0
-214 35 0
-213 35 0
-214 40 0
-213 40 0
-214 7 0
-213 -7 0
214 -35 -40 -7 0
213 -35 -40 7 0
-216 36 0
-215 36 0
-216 37 0
-215 37 0
-216 7 0
-215 -7 0
216 -36 -37 -7 0
215 -36 -37 7 0
-218 36 0
-217 36 0
-218 38 0
-217 38 0
-218 7 0
-217 -7 0
218 -36 -38 -7 0
217 -36 -38 7 0
-220 36 0
-219 36 0
-220 39 0
-219 39 0
-220 7 0
-219 -7 0
220 -36 -39 -7 0
219 -36 -39 7 0
-222 37 0
-221 37 0
-222 10 0
-221 10 0
-222 8 0
-221 -8 0
222 -37 -10 -8 0
221 -37 -10 8 0
-224 37 0
-223 37 0
-224 11 0
-223 11 0
-224 8 0
-223 -8 0
224 -37 -11 -8 0
223 -37 -11 8 0
-226 37 0
-225 37 0
-226 12 0
-225 12 0
-226 8 0
-225 -8 0
226 -37 -12 -8 0
225 -37 -12 8 0
-228 38 0
-227 38 0
-228 9 0
-227 9 0
-228 8 0
-227 -8 0
228 -38 -9 -8 0
227 -38 -9 8 0
-230 38 0
-229 38 0
-230 11 0
-229 11 0
-230 8 0
-229 -8 0
230 -38 -11 -8 0
229 -38 -11 8 0
-232 38 0
-231 38 0
-232 12 0
-231 12 0
-232 8 0
-231 -8 0
232 -38 -12 -8 0
231 -38 -12 8 0
-234 39 0
-233 39 0
-234 9 0
-233 9 0
-234 8 0
-233 -8 0
234 -39 -9 -8 0
233 -39 -9 8 0
-236 39 0
-235 39 0
-236 10 0
-235 10 0
-236 8 0
-235 -8 0
236 -39 -10 -8 0
235 -39 -10 8 0
-238 39 0
-237 39 0
-238 12 0
-237 12 0
-238 8 0
-237 -8 0
238 -39 -12 -8 0
237 -39 -12 8 0
-240 40 0
-239 40 0
-240 9 0
-239 9 0
-240 8 0
-239 -8 0
240 -40 -9 -8 0
239 -40 -9 8 0
-242 40 0
-241 40 0
-242 10 0
-241 10 0
-242 8 0
-241 -8 0
242 -40 -10 -8 0
241 -40 -10 8 0
-244 40 0
-243 40 0
-244 11 0
-243 11 0
-244 8 0
-243 -8 0
244 -40 -11 -8 0
243 -40 -11 8 0
c x suite
-41 -42 54 60 78 84 102 108 126 132 150 156 174 180 198 204 222 228 0
-43 -44 56 66 80 90 104 114 128 138 152 162 176 186 200 210 224 234 0
-45 -46 58 72 82 96 106 120 130 144 154 168 178 192 202 216 226 240 0
-47 -48 62 68 86 92 110 116 134 140 158 164 182 188 206 212 230 236 0
-49 -50 64 74 88 98 112 122 136 146 160 170 184 194 208 218 232 242 0
-51 -52 70 76 94 100 118 124 142 148 166 172 190 196 214 220 238 244 0
-41 42 53 59 77 83 101 107 125 131 149 155 173 179 197 203 221 227 0
-43 44 55 65 79 89 103 113 127 137 151 161 175 185 199 209 223 233 0
-45 46 57 71 81 95 105 119 129 143 153 167 177 191 201 215 225 239 0
-47 48 61 67 85 91 109 115 133 139 157 163 181 187 205 211 229 235 0
-49 50 63 73 87 97 111 121 135 145 159 169 183 193 207 217 231 241 0
-51 52 69 75 93 99 117 123 141 147 165 171 189 195 213 219 237 243 0
c proper colo
-9 -13 0
-10 -14 0
-11 -15 0
-12 -16 0
-13 -17 0
-14 -18 0
-15 -19 0
-16 -20 0
-17 -21 0
-18 -22 0
-19 -23 0
-20 -24 0
-21 -25 0
-22 -26 0
-23 -27 0
-24 -28 0
-25 -29 0
-26 -30 0
-27 -31 0
-28 -32 0
-29 -33 0
-30 -34 0
-31 -35 0
-32 -36 0
-33 -37 0
-34 -38 0
-35 -39 0
-36 -40 0
-37 -9 0
-38 -10 0
-39 -11 0
-40 -12 0
41 245 246 0
43 247 248 0
45 249 250 0
47 251 252 0
49 253 254 0
51 255 256 0
-245 43 0
-245 47 0
-245 44 48 0
-245 -44 -48 0
245 -43 -47 44 -48 0
245 -43 -47 -44 48 0
-246 45 0
-246 49 0
-246 46 50 0
-246 -46 -50 0
246 -45 -49 46 -50 0
246 -45 -49 -46 50 0
-247 41 0
-247 47 0
-247 42 48 0
-247 -42 -48 0
247 -41 -47 42 -48 0
247 -41 -47 -42 48 0
-248 45 0
-248 51 0
-248 46 52 0
-248 -46 -52 0
248 -45 -51 46 -52 0
248 -45 -51 -46 52 0
-249 41 0
-249 49 0
-249 42 50 0
-249 -42 -50 0
249 -41 -49 42 -50 0
249 -41 -49 -42 50 0
-250 43 0
-250 51 0
-250 44 52 0
-250 -44 -52 0
250 -43 -51 44 -52 0
250 -43 -51 -44 52 0
-251 41 0
-251 43 0
-251 42 44 0
-251 -42 -44 0
251 -41 -43 42 -44 0
251 -41 -43 -42 44 0
-252 49 0
-252 51 0
-252 50 52 0
-252 -50 -52 0
252 -49 -51 50 -52 0
252 -49 -51 -50 52 0
-253 41 0
-253 45 0
-253 42 46 0
-253 -42 -46 0
253 -41 -45 42 -46 0
253 -41 -45 -42 46 0
-254 47 0
-254 51 0
-254 48 52 0
-254 -48 -52 0
254 -47 -51 48 -52 0
254 -47 -51 -48 52 0
-255 43 0
-255 45 0
-255 44 46 0
-255 -44 -46 0
255 -43 -45 44 -46 0
255 -43 -45 -44 46 0
-256 47 0
-256 49 0
-256 48 50 0
-256 -48 -50 0
256 -47 -49 48 -50 0
256 -47 -49 -48 50 0
